&CONTROL
calculation = 'scf'
/
&SYSTEM
ibrav = 0
ntyp = 1
nat = 2
tot_charge = 0
nspin = 2
tot_magnetization = 2
ecutwfc = 20
/
&ELECTRONS
conv_thr = 1D-08
/
K_POINTS gamma
CELL_PARAMETERS angstrom
5.000033  0.000000  0.000000
0.000000  5.000033  0.000000
0.000000  0.000000  5.000033
ATOMIC_SPECIES
O  15.9989996  O_ONCV_PBE-1.2.upf
ATOMIC_POSITIONS angstrom
O    0.00000000  0.00000000  0
O    0.00000000  0.00000000  1.21
