&CONTROL
calculation = 'scf'
pseudo_dir = './'
prefix = 'singlet_1'
/
&SYSTEM
ibrav = 0
ntyp = 5
nat = 215
tot_charge = -1.0
tot_magnetization = 0.0
starting_magnetization(1) =  0.5  ! C1
starting_magnetization(2) = -0.25 ! C2
starting_magnetization(3) = -0.25 ! C3
starting_magnetization(4) =  0.0  ! C
starting_magnetization(5) =  0.0  ! N
nspin = 2
nbnd = 628
ecutwfc = 60.0
/
&ELECTRONS
diago_full_acc = .true.
mixing_beta = 0.2
/
ATOMIC_SPECIES
C1  12.01099968  C_ONCV_PBE-1.2.upf
C2  12.01099968  C_ONCV_PBE-1.2.upf
C3  12.01099968  C_ONCV_PBE-1.2.upf
C   12.01099968  C_ONCV_PBE-1.2.upf
N   14.00699997  N_ONCV_PBE-1.2.upf
CELL_PARAMETERS angstrom
10.704  0.000  0.000
 0.000 10.704  0.000
 0.000  0.000 10.704
K_POINTS gamma
ATOMIC_POSITIONS crystal
N 0.09152860 0.09152860 0.09152860
C 0.00406095 0.16656435 0.16656435
C 0.08375956 0.25132100 0.25132100
C 0.16656435 0.00406095 0.16656435
C 0.25132100 0.08375956 0.25132100
C 0.16656435 0.16656435 0.00406095
C 0.25132100 0.25132100 0.08375956
C 0.00008479 0.00008479 0.33283360
C 0.08339786 0.08339786 0.41672965
C 0.00001566 0.16656881 0.50004871
C 0.08326671 0.24989560 0.58351323
C 0.16656881 0.00001566 0.50004871
C 0.24989560 0.08326671 0.58351323
C 0.16713153 0.16713153 0.33408428
C 0.25020487 0.25020487 0.41712458
C 0.99984338 0.99984338 0.66702816
C 0.08281135 0.08281135 0.75072909
C 0.99895986 0.16485431 0.83461141
C 0.08251591 0.24836734 0.91825974
C 0.16485431 0.99895986 0.83461141
C 0.24836734 0.08251591 0.91825974
C 0.16622186 0.16622186 0.66720992
C 0.24953177 0.24953177 0.75057394
C 0.00008479 0.33283360 0.00008479
C 0.08339786 0.41672965 0.08339786
C 0.00001566 0.50004871 0.16656881
C 0.08326671 0.58351323 0.24989560
C 0.16713153 0.33408428 0.16713153
C 0.25020487 0.41712458 0.25020487
C 0.16656881 0.50004871 0.00001566
C 0.24989560 0.58351323 0.08326671
C 0.00027688 0.33386603 0.33386603
C 0.08336456 0.41697495 0.41697495
C 0.00001683 0.49998105 0.49998105
C 0.08321204 0.58306345 0.58306345
C 0.16670944 0.33337114 0.50028918
C 0.24993513 0.41657415 0.58357284
C 0.16670944 0.50028918 0.33337114
C 0.24993513 0.58357284 0.41657415
C 0.99985602 0.33340447 0.66654379
C 0.08316950 0.41622885 0.75039993
C 0.99998161 0.49983489 0.83346972
C 0.08322304 0.58335107 0.91669677
C 0.16638542 0.33231108 0.83427654
C 0.24992639 0.41652052 0.91689915
C 0.16665894 0.49975729 0.66687415
C 0.24993176 0.58319109 0.75005301
C 0.99984338 0.66702816 0.99984338
C 0.08281135 0.75072909 0.08281135
C 0.99895986 0.83461141 0.16485431
C 0.08251591 0.91825974 0.24836734
C 0.16622186 0.66720992 0.16622186
C 0.24953177 0.75057394 0.24953177
C 0.16485431 0.83461141 0.99895986
C 0.24836734 0.91825974 0.08251591
C 0.99985602 0.66654379 0.33340447
C 0.08316950 0.75039993 0.41622885
C 0.99998161 0.83346972 0.49983489
C 0.08322304 0.91669677 0.58335107
C 0.16665894 0.66687415 0.49975729
C 0.24993176 0.75005301 0.58319109
C 0.16638542 0.83427654 0.33231108
C 0.24992639 0.91689915 0.41652052
C 0.00008183 0.66614375 0.66614375
C 0.08289904 0.74902978 0.74902978
C 0.00053850 0.83348289 0.83348289
C1 0.08713894 0.91048546 0.91048546
C 0.16657469 0.66657430 0.83322405
C 0.25035752 0.74957641 0.91684864
C 0.16657469 0.83322405 0.66657430
C 0.25035752 0.91684864 0.74957641
C 0.33283360 0.00008479 0.00008479
C 0.41672965 0.08339786 0.08339786
C 0.33408428 0.16713153 0.16713153
C 0.41712458 0.25020487 0.25020487
C 0.50004871 0.00001566 0.16656881
C 0.58351323 0.08326671 0.24989560
C 0.50004871 0.16656881 0.00001566
C 0.58351323 0.24989560 0.08326671
C 0.33386603 0.00027688 0.33386603
C 0.41697495 0.08336456 0.41697495
C 0.33337114 0.16670944 0.50028918
C 0.41657415 0.24993513 0.58357284
C 0.49998105 0.00001683 0.49998105
C 0.58306345 0.08321204 0.58306345
C 0.50028918 0.16670944 0.33337114
C 0.58357284 0.24993513 0.41657415
C 0.33340447 0.99985602 0.66654379
C 0.41622885 0.08316950 0.75039993
C 0.33231108 0.16638542 0.83427654
C 0.41652052 0.24992639 0.91689915
C 0.49983489 0.99998161 0.83346972
C 0.58335107 0.08322304 0.91669677
C 0.49975729 0.16665894 0.66687415
C 0.58319109 0.24993176 0.75005301
C 0.33386603 0.33386603 0.00027688
C 0.41697495 0.41697495 0.08336456
C 0.33337114 0.50028918 0.16670944
C 0.41657415 0.58357284 0.24993513
C 0.50028918 0.33337114 0.16670944
C 0.58357284 0.41657415 0.24993513
C 0.49998105 0.49998105 0.00001683
C 0.58306345 0.58306345 0.08321204
C 0.33347050 0.33347050 0.33347050
C 0.41673247 0.41673247 0.41673247
C 0.33329711 0.50005503 0.50005503
C 0.41664684 0.58334948 0.58334948
C 0.50005503 0.33329711 0.50005503
C 0.58334948 0.41664684 0.58334948
C 0.50005503 0.50005503 0.33329711
C 0.58334948 0.58334948 0.41664684
C 0.33309935 0.33309935 0.66702679
C 0.41654604 0.41654604 0.75010768
C 0.33320910 0.49986185 0.83336463
C 0.41672856 0.58316778 0.91673106
C 0.49986185 0.33320910 0.83336463
C 0.58316778 0.41672856 0.91673106
C 0.49997743 0.49997743 0.66672237
C 0.58336242 0.58336242 0.75004203
C 0.33340447 0.66654379 0.99985602
C 0.41622885 0.75039993 0.08316950
C 0.33231108 0.83427654 0.16638542
C 0.41652052 0.91689915 0.24992639
C 0.49975729 0.66687415 0.16665894
C 0.58319109 0.75005301 0.24993176
C 0.49983489 0.83346972 0.99998161
C 0.58335107 0.91669677 0.08322304
C 0.33309935 0.66702679 0.33309935
C 0.41654604 0.75010768 0.41654604
C 0.33320910 0.83336463 0.49986185
C 0.41672856 0.91673106 0.58316778
C 0.49997743 0.66672237 0.49997743
C 0.58336242 0.75004203 0.58336242
C 0.49986185 0.83336463 0.33320910
C 0.58316778 0.91673106 0.41672856
C 0.33323057 0.66669044 0.66669044
C 0.41664480 0.74999600 0.74999600
C 0.33322293 0.83331221 0.83331221
C 0.41644973 0.91672376 0.91672376
C 0.49995303 0.66666581 0.83331752
C 0.58318248 0.74995219 0.91666536
C 0.49995303 0.83331752 0.66666581
C 0.58318248 0.91666536 0.74995219
C 0.66702816 0.99984338 0.99984338
C 0.75072909 0.08281135 0.08281135
C 0.66720992 0.16622186 0.16622186
C 0.75057394 0.24953177 0.24953177
C 0.83461141 0.99895986 0.16485431
C 0.91825974 0.08251591 0.24836734
C 0.83461141 0.16485431 0.99895986
C 0.91825974 0.24836734 0.08251591
C 0.66654379 0.99985602 0.33340447
C 0.75039993 0.08316950 0.41622885
C 0.66687415 0.16665894 0.49975729
C 0.75005301 0.24993176 0.58319109
C 0.83346972 0.99998161 0.49983489
C 0.91669677 0.08322304 0.58335107
C 0.83427654 0.16638542 0.33231108
C 0.91689915 0.24992639 0.41652052
C 0.66614375 0.00008183 0.66614375
C 0.74902978 0.08289904 0.74902978
C 0.66657430 0.16657469 0.83322405
C 0.74957641 0.25035752 0.91684864
C 0.83348289 0.00053850 0.83348289
C2 0.91048546 0.08713894 0.91048546
C 0.83322405 0.16657469 0.66657430
C 0.91684864 0.25035752 0.74957641
C 0.66654379 0.33340447 0.99985602
C 0.75039993 0.41622885 0.08316950
C 0.66687415 0.49975729 0.16665894
C 0.75005301 0.58319109 0.24993176
C 0.83427654 0.33231108 0.16638542
C 0.91689915 0.41652052 0.24992639
C 0.83346972 0.49983489 0.99998161
C 0.91669677 0.58335107 0.08322304
C 0.66702679 0.33309935 0.33309935
C 0.75010768 0.41654604 0.41654604
C 0.66672237 0.49997743 0.49997743
C 0.75004203 0.58336242 0.58336242
C 0.83336463 0.33320910 0.49986185
C 0.91673106 0.41672856 0.58316778
C 0.83336463 0.49986185 0.33320910
C 0.91673106 0.58316778 0.41672856
C 0.66669044 0.33323057 0.66669044
C 0.74999600 0.41664480 0.74999600
C 0.66666581 0.49995303 0.83331752
C 0.74995219 0.58318248 0.91666536
C 0.83331221 0.33322293 0.83331221
C 0.91672376 0.41644973 0.91672376
C 0.83331752 0.49995303 0.66666581
C 0.91666536 0.58318248 0.74995219
C 0.66614375 0.66614375 0.00008183
C 0.74902978 0.74902978 0.08289904
C 0.66657430 0.83322405 0.16657469
C 0.74957641 0.91684864 0.25035752
C 0.83322405 0.66657430 0.16657469
C 0.91684864 0.74957641 0.25035752
C 0.83348289 0.83348289 0.00053850
C3 0.91048546 0.91048546 0.08713894
C 0.66669044 0.66669044 0.33323057
C 0.74999600 0.74999600 0.41664480
C 0.66666581 0.83331752 0.49995303
C 0.74995219 0.91666536 0.58318248
C 0.83331752 0.66666581 0.49995303
C 0.91666536 0.74995219 0.58318248
C 0.83331221 0.83331221 0.33322293
C 0.91672376 0.91672376 0.41644973
C 0.66676564 0.66676564 0.66676564
C 0.75009290 0.75009290 0.75009290
C 0.66679851 0.83348831 0.83348831
C 0.75027490 0.91667191 0.91667191
C 0.83348831 0.66679851 0.83348831
C 0.91667191 0.75027490 0.91667191
C 0.83348831 0.83348831 0.66679851
C 0.91667191 0.91667191 0.75027490
